(declare-const a Real)
(declare-const b Real)
(assert (< (+ a b) 6))
(assert (> a 0))
(assert (> b 0))
(assert (not (<= (+ (/ -1 2) (* (/ 1 2) (pow (+ (* (pow (+ a b) (/ 1 2)) (pow (+ a (* 7 b)) (/ -1 2))) (* 6 (pow a (/ 1 2)) (pow b (/ 1 2)) (pow (+ (* 8 (pow (+ a b) 2)) (* 36 a b)) (/ -1 2)))) 2)) (* -12 a (pow (+ 2 (* 2 (pow b 2)) (* 28 a)) -1))) 0)))
(check-sat)
(get-model)
(exit)